(set-info :smt-lib-version 2.6)
(set-logic QF_UFLRA)
(set-info :source |
MathSat group

|)
(set-info :category "random")
(set-info :status unsat)
(declare-fun x0 () Real)
(declare-fun x1 () Real)
(declare-fun x2 () Real)
(declare-fun x3 () Real)
(declare-fun x4 () Real)
(declare-fun x5 () Real)
(declare-fun x6 () Real)
(declare-fun x7 () Real)
(declare-fun x8 () Real)
(declare-fun x9 () Real)
(declare-fun x10 () Real)
(declare-fun x11 () Real)
(declare-fun x12 () Real)
(declare-fun x13 () Real)
(declare-fun x14 () Real)
(declare-fun x15 () Real)
(declare-fun x16 () Real)
(declare-fun x17 () Real)
(declare-fun x18 () Real)
(declare-fun x19 () Real)
(declare-fun x20 () Real)
(declare-fun x21 () Real)
(declare-fun x22 () Real)
(declare-fun x23 () Real)
(declare-fun x24 () Real)
(declare-fun x25 () Real)
(declare-fun x26 () Real)
(declare-fun x27 () Real)
(declare-fun x28 () Real)
(declare-fun x29 () Real)
(declare-fun x30 () Real)
(declare-fun x31 () Real)
(declare-fun x32 () Real)
(declare-fun x33 () Real)
(declare-fun x34 () Real)
(declare-fun x35 () Real)
(declare-fun x36 () Real)
(declare-fun x37 () Real)
(declare-fun x38 () Real)
(declare-fun x39 () Real)
(declare-fun x40 () Real)
(declare-fun x41 () Real)
(declare-fun x42 () Real)
(declare-fun x43 () Real)
(declare-fun x44 () Real)
(declare-fun x45 () Real)
(declare-fun x46 () Real)
(declare-fun x47 () Real)
(declare-fun x48 () Real)
(declare-fun x49 () Real)
(declare-fun f0_1 (Real) Real)
(declare-fun f0_2 (Real Real) Real)
(declare-fun f0_3 (Real Real Real) Real)
(declare-fun f0_4 (Real Real Real Real) Real)
(declare-fun P0 () Bool)
(declare-fun P1 () Bool)
(declare-fun P2 () Bool)
(declare-fun P3 () Bool)
(declare-fun P4 () Bool)
(declare-fun P5 () Bool)
(declare-fun P6 () Bool)
(declare-fun P7 () Bool)
(declare-fun P8 () Bool)
(declare-fun P9 () Bool)
(declare-fun P10 () Bool)
(declare-fun P11 () Bool)
(declare-fun P12 () Bool)
(declare-fun P13 () Bool)
(declare-fun P14 () Bool)
(declare-fun P15 () Bool)
(declare-fun P16 () Bool)
(declare-fun P17 () Bool)
(declare-fun P18 () Bool)
(declare-fun P19 () Bool)
(declare-fun P20 () Bool)
(declare-fun P21 () Bool)
(declare-fun P22 () Bool)
(declare-fun P23 () Bool)
(declare-fun P24 () Bool)
(declare-fun P25 () Bool)
(declare-fun P26 () Bool)
(declare-fun P27 () Bool)
(declare-fun P28 () Bool)
(declare-fun P29 () Bool)
(declare-fun P30 () Bool)
(declare-fun P31 () Bool)
(declare-fun P32 () Bool)
(declare-fun P33 () Bool)
(declare-fun P34 () Bool)
(declare-fun P35 () Bool)
(declare-fun P36 () Bool)
(declare-fun P37 () Bool)
(declare-fun P38 () Bool)
(declare-fun P39 () Bool)
(declare-fun P40 () Bool)
(declare-fun P41 () Bool)
(declare-fun P42 () Bool)
(declare-fun P43 () Bool)
(declare-fun P44 () Bool)
(declare-fun P45 () Bool)
(declare-fun P46 () Bool)
(declare-fun P47 () Bool)
(declare-fun P48 () Bool)
(declare-fun P49 () Bool)
(assert (let ((?v_83 (* 21 x26)) (?v_227 (< (- (+ (* 19 x24) (* 4 x28)) (* 5 x1)) 0)) (?v_25 (* 18 x30)) (?v_104 (<= (- (+ (* 4 x1) (* 25 x14)) (* 12 x23)) 15)) (?v_79 (= (- (+ (* 22 x17) (* 10 x1)) (* 17 x27)) 21)) (?v_45 (* 16 x42)) (?v_134 (* 19 x2))) (let ((?v_198 (<= (- (- ?v_134 (* 15 x3)) (* 26 x26)) 23)) (?v_36 (<= (+ (- (* 2 x29) (* 16 x34)) (* 18 x2)) 15)) (?v_47 (= (f0_2 x14 x15) (f0_2 x18 x39))) (?v_56 (= x38 x49)) (?v_48 (= (f0_1 x43) (f0_1 x27))) (?v_200 (= (f0_2 x46 x18) (f0_1 x39))) (?v_17 (distinct x13 x0)) (?v_20 (= (f0_2 x44 x38) (f0_1 x26))) (?v_129 (= (f0_2 x47 x0) x4)) (?v_158 (= (f0_1 x1) x27)) (?v_141 (= (f0_2 x31 x21) x47)) (?v_18 (f0_1 x48))) (let ((?v_60 (distinct ?v_18 x1)) (?v_49 (f0_1 x38))) (let ((?v_216 (distinct (f0_1 x45) ?v_49)) (?v_236 (distinct x46 x41)) (?v_219 (= (f0_2 x18 x49) x19)) (?v_81 (= (f0_2 x45 x44) (f0_2 x40 x27))) (?v_188 (distinct (f0_1 x3) x40)) (?v_123 (distinct (f0_1 x47) (f0_2 x0 x4))) (?v_124 (= (f0_1 x5) (f0_1 x20))) (?v_4 (f0_1 x6))) (let ((?v_9 (= ?v_18 ?v_4)) (?v_125 (distinct x37 (f0_2 x4 x22))) (?v_116 (= (f0_2 x24 x7) x46)) (?v_88 (distinct x4 x49)) (?v_40 (f0_1 x37))) (let ((?v_33 (= (f0_1 x2) ?v_40)) (?v_121 (= x45 (f0_2 x22 x49))) (?v_30 (f0_1 x32))) (let ((?v_67 (= (f0_2 x49 x4) ?v_30)) (?v_143 (= x49 x0)) (?v_34 (= x5 (f0_1 x25))) (?v_199 (= x41 x15)) (?v_132 (= x29 (f0_1 x8))) (?v_58 (= ?v_49 (f0_2 x38 x49))) (?v_119 (= x18 x32)) (?v_12 (= (f0_2 x21 x6) (f0_2 x26 x46))) (?v_35 (distinct x33 ?v_18)) (?v_205 (distinct (f0_2 x9 x2) x20)) (?v_42 (distinct (f0_2 x3 x3) (f0_2 x40 x18))) (?v_22 (= (f0_2 x2 x1) ?v_4)) (?v_16 (distinct (f0_1 x13) (f0_1 x23))) (?v_87 (f0_1 x36))) (let ((?v_176 (= (f0_1 x11) ?v_87)) (?v_120 (= x7 (f0_2 x40 x39))) (?v_38 (= (f0_2 x15 x45) x37)) (?v_257 (= x8 (f0_2 x37 x8))) (?v_44 (distinct ?v_87 x43)) (?v_63 (= (f0_2 x38 x21) ?v_40)) (?v_105 (distinct x25 x25)) (?v_64 (distinct (f0_2 x3 x38) (f0_2 x4 x41))) (?v_122 (distinct (f0_2 x36 x7) ?v_30)) (?v_26 (distinct (f0_2 x11 x41) (f0_1 x4))) (?v_65 (distinct (f0_2 x3 x13) (f0_2 x37 x17))) (?v_2 (distinct (f0_1 x29) (f0_2 x43 x20))) (?v_126 (not P38)) (?v_103 (not P15))) (let ((?v_0 (not ?v_122)) (?v_222 (not ?v_2)) (?v_19 (not P4)) (?v_108 (not ?v_257)) (?v_6 (not P13)) (?v_140 (not (= (f0_2 x18 x33) (f0_1 x46)))) (?v_54 (not P40)) (?v_113 (not ?v_22)) (?v_114 (not ?v_48))) (let ((?v_234 (or ?v_114 ?v_17)) (?v_178 (not ?v_56)) (?v_247 (not P49)) (?v_153 (not ?v_16)) (?v_128 (not ?v_81)) (?v_43 (not ?v_34)) (?v_95 (not P2)) (?v_37 (not ?v_12)) (?v_195 (not ?v_116)) (?v_215 (not P19)) (?v_24 (not ?v_17)) (?v_111 (not ?v_60)) (?v_135 (not P26)) (?v_161 (not ?v_20)) (?v_62 (not P32)) (?v_59 (not P11)) (?v_186 (not P25)) (?v_51 (not ?v_44)) (?v_80 (not ?v_79)) (?v_78 (not ?v_26)) (?v_210 (not ?v_67)) (?v_218 (not P47)) (?v_166 (not P36)) (?v_117 (not ?v_35)) (?v_72 (not ?v_121)) (?v_84 (not P22)) (?v_146 (not P33)) (?v_74 (not ?v_143)) (?v_151 (not ?v_38)) (?v_39 (not P21)) (?v_55 (not ?v_120)) (?v_170 (not ?v_63)) (?v_85 (not P12)) (?v_197 (not P7)) (?v_240 (not P34)) (?v_217 (not ?v_236)) (?v_133 (not P28)) (?v_168 (not P1)) (?v_68 (not P42)) (?v_86 (not P46)) (?v_107 (not P6)) (?v_144 (not ?v_47)) (?v_209 (not P24)) (?v_171 (not P39)) (?v_220 (not ?v_119)) (?v_175 (not P41)) (?v_110 (not ?v_65)) (?v_130 (not P8)) (?v_230 (not ?v_58)) (?v_142 (not P0)) (?v_102 (not ?v_158)) (?v_138 (not P44)) (?v_94 (not P3)) (?v_189 (not ?v_88)) (?v_254 (not P48)) (?v_208 (not P45)) (?v_152 (not ?v_104)) (?v_118 (not (= (f0_1 x34) (f0_1 x16)))) (?v_115 (not ?v_132)) (?v_155 (not P43)) (?v_228 (not P23)) (?v_174 (not ?v_123)) (?v_165 (not ?v_125)) (?v_162 (not ?v_200)) (?v_136 (not ?v_198)) (?v_201 (not ?v_124)) (?v_196 (not ?v_33)) (?v_184 (not P5)) (?v_256 (not ?v_141)) (?v_150 (not P9)) (?v_202 (not ?v_205)) (?v_182 (not ?v_36)) (?v_173 (not ?v_42)) (?v_232 (not P10)) (?v_181 (not ?v_176)) (?v_183 (not ?v_199)) (?v_185 (not ?v_129)) (?v_193 (not P27)) (?v_204 (not P20)) (?v_194 (not ?v_9)) (?v_221 (not P14)) (?v_249 (not P29)) (?v_224 (not P30)) (?v_242 (not P37)) (?v_245 (not P17)) (?v_233 (not ?v_188)) (?v_237 (not P16)) (?v_225 (not ?v_216)) (?v_255 (not ?v_219)) (?v_235 (not P31)) (?v_246 (not ?v_227)) (?v_231 (not P18)) (?v_248 (not P35)) (?v_50 (< (+ (* 16 x38) (* 14 x17) (* 26 x22)) 0))) (let ((?v_41 (not ?v_50)) (?v_160 (< (- (* 13 x2) ?v_45) 4)) (?v_90 (<= (+ (* 16 x41) x23 (* 17 x29)) 5))) (let ((?v_139 (not ?v_90)) (?v_203 (distinct (- (* 20 x11) (* 14 x30)) 14)) (?v_179 (not ?v_160))) (let ((?v_250 (not ?v_203)) (?v_101 (< (- (- (* 3 x36) (* 7 x24)) (* 27 x48)) (- 20)))) (let ((?v_3 (not ?v_101)) (?v_167 (= (- (- (* (- 10) x34) (* 26 x31)) (* 15 x23)) (- 20)))) (let ((?v_1 (not ?v_167)) (?v_5 (<= (+ (- (* (- 25) x46) (* 3 x19)) (* 27 x45)) 27))) (let ((?v_32 (not ?v_5)) (?v_53 (distinct (+ (- (* (- 22) x17) (* 27 x46)) (* 23 x31)) (- 24)))) (let ((?v_15 (not ?v_53)) (?v_23 (<= (- (+ (* 12 x10) (* 18 x12)) (* 4 x4)) (- 28)))) (let ((?v_8 (not ?v_23)) (?v_10 (distinct (- (- (* (- 23) x45) 0) (* 23 x15)) (- 5)))) (let ((?v_147 (not ?v_10)) (?v_13 (< (- (- (* (- 6) x26) (* 5 x37)) (* 15 x31)) (- 19))) (?v_57 (< (+ (* (- 12) x38) (* 4 x35) (* 10 x22)) 19)) (?v_7 (<= (- (+ (* (- 1) x27) (* 26 x41)) ?v_25) 20)) (?v_21 (distinct (+ (* (- 13) x12) (* 17 x36)) (- 3)))) (let ((?v_100 (not ?v_21)) (?v_172 (distinct (- (+ (* 26 x43) (* 9 x36)) (* 20 x14)) (- 19)))) (let ((?v_28 (not ?v_172)) (?v_66 (< (+ (- (* (- 18) x7) (* 7 x45)) (* 11 x29)) (- 17))) (?v_14 (<= (- (- (* (- 3) x24) x34) (* 9 x49)) (- 7))) (?v_70 (< (+ (- (* (- 18) x35) (* 8 x43)) (* 5 x24)) 17))) (let ((?v_96 (not ?v_70)) (?v_206 (< (+ (- (* 16 x8) (* 18 x47)) x19) (- 22)))) (let ((?v_29 (not ?v_206)) (?v_11 (< (- (+ (* 21 x31) (* 4 x39)) 0) (- 16))) (?v_149 (distinct (+ (- (* 22 x13) (* 20 x25)) (* 21 x19)) (- 28)))) (let ((?v_73 (not ?v_11)) (?v_82 (= (+ (* 16 x17) (* 15 x49) ?v_134) (- 17)))) (let ((?v_212 (not ?v_82)) (?v_61 (< (- (+ (* (- 22) x18) (* 12 x46)) (* 5 x18)) (- 23))) (?v_69 (<= (+ (- (* (- 18) x34) (* 3 x13)) x17) 14))) (let ((?v_131 (not ?v_69)) (?v_31 (<= (+ (- (* (- 6) x12) 0) (* 27 x6)) 24)) (?v_223 (< (+ (* (- 24) x33) (* 3 x43) (* 16 x26)) 6))) (let ((?v_159 (not ?v_223)) (?v_180 (< (+ (* (- 24) x16) (* 6 x22) (* 8 x17)) (- 1)))) (let ((?v_27 (not ?v_180)) (?v_154 (<= (- (- (* (- 6) x33) (* 24 x11)) (* 11 x28)) (- 15)))) (let ((?v_187 (not ?v_154)) (?v_92 (< (- (- (* (- 15) x47) (* 15 x6)) ?v_25) (- 15)))) (let ((?v_127 (not ?v_92)) (?v_93 (* (- 16) x33))) (let ((?v_243 (< (+ ?v_93 (* 25 x6) (* 4 x15)) (- 2)))) (let ((?v_106 (not ?v_243)) (?v_156 (<= (+ (- (* 21 x33) (* 6 x9)) (* 18 x37)) (- 16)))) (let ((?v_91 (not ?v_156)) (?v_157 (not ?v_31)) (?v_99 (<= (+ (- (* (- 7) x3) (* 6 x25)) ?v_83) (- 21)))) (let ((?v_71 (not ?v_99)) (?v_109 (distinct (+ (- (* 11 x38) (* 22 x9)) (* 5 x29)) (- 9))) (?v_46 (< (- (- (* 15 x10) (* 25 x38)) (* 19 x6)) (- 5))) (?v_148 (<= (+ (* (- 17) x14) (* 10 x5) ?v_45) 6))) (let ((?v_52 (not ?v_148)) (?v_169 (not ?v_46)) (?v_77 (<= (+ (* 25 x37) (* 13 x5) (* 17 x42)) (- 27))) (?v_75 (not ?v_7)) (?v_97 (< (- (+ (* 20 x13) (* 27 x39)) (* 17 x49)) (- 17))) (?v_98 (< (- (+ (* (- 12) x35) (* 22 x31)) (* 3 x16)) 6))) (let ((?v_163 (not ?v_98)) (?v_211 (not ?v_57)) (?v_241 (not ?v_61)) (?v_207 (not ?v_66)) (?v_164 (< (- (- (* (- 6) x32) (* 12 x21)) (* 12 x45)) (- 22)))) (let ((?v_76 (not ?v_164)) (?v_112 (= (- (+ (* (- 18) x3) (* 6 x26)) (* 24 x19)) (- 15))) (?v_145 (<= (- (- (* (- 18) x19) ?v_83) (* 17 x18)) (- 29)))) (let ((?v_89 (not ?v_145)) (?v_190 (= (- (- ?v_93 (* 21 x30)) (* 20 x24)) 1)) (?v_192 (not ?v_14)) (?v_137 (not ?v_97))) (let ((?v_253 (or ?v_92 ?v_137)) (?v_229 (not ?v_13)) (?v_191 (< (- (+ (* (- 25) x14) ?v_45) (* 24 x41)) (- 21))) (?v_177 (< (- (- (* (- 23) x2) (* 4 x48)) (* 11 x4)) (- 22))) (?v_214 (not ?v_109)) (?v_244 (not ?v_149)) (?v_239 (not ?v_77))) (let ((?v_226 (not ?v_177)) (?v_238 (not ?v_112)) (?v_213 (not ?v_191)) (?v_251 (not ?v_190)) (?v_252 (distinct (- (- (* (- 14) x20) (* 3 x12)) 0) 19))) (and (and (and (and (and (and (and (and (and (and (and (and (and (and (and (and (and (and (and (and (and (and (and (and (and (and (and (and (and (and (and (and (and (and (and (and (and (and (and (and (and (and (and (and (and (and (and (and (and (and (and (and (and (and (and (and (and (and (and (and (and (and (and (and (and (and (and (and (and (and (and (and (and (and (and (and (and (and (and (and (and (and (and (and (and (and (and (and (and (and (and (and (and (and (and (and (and (and (and (and (and (and (and (and (and (and (and (and (and (and (and (and (and (and (and (and (and (and (and (and (and (and (and (and (and (and (and (and (and (and (and (and (and (and (and (and (and (and (and (and (and (and (and (and (and (and (and (and (and (and (and (and (and (and (and (and (and (and (and (and (and (and (and (and (and (and (and (and (and (and (and (and (and (and (and (and (and (and (and (and (and (and (and (and (and (and (and (and (and (and (and (and (and (and (and (and (and (and (and (and (and (and (and (and (and (and (and (and (and (and (and (and (and (and (and (and (and (and (and (and (and (and (and (and (and (and (and (and (and (and (and (and (and (and (and (and (and (and (and (and (and (and (and (and (and (and (and (and (and (and (and (and (and (and (and (and (and (and (and (and (and (and (and (and (and (and (and (and (and (and (and (and (and (and (and (and (and (and (and (and (and (and (and (and (and (and (and (and (and (and (and (and (and (and (and (and (and (and (and (and (and (and (and (and (and (and (and (and (and (and (and (and (and (and (and (and (and (and (and (and (and (and (and (and (and (and (and (and (and (and (and (and (and (and (and (and (and (and (and (and (and (and (and (and (and (and (and (and (and (and (and (and (and (and (and (and (and (and (and (and (and (and (and (and (and (and (and (and (and (and (and (and (and (and (and (and (and (and (and (and (and (and (and (and (and (and (and (and (and (and (and (and (and (and (and (and (and (and (and (and (and (and (and (and (and (and (and (and (and (and (and (and (and (and (and (and (and (and (and (and (and (and (and (and (and (and (and (and (and (and (and (and (and (and (and (and (and (and (and (and (and (and (and (and (and (and (and (and (and (and (and (and (and (and (and (and (and (and (and (and (and (and (and (and (and (and (and (and (and (and (and (and (and (and (and (and (and (and (and (and (and (and (and (and (and (and (and (and (and (and (and (and (and (and (and (and (and (and (and (and (and (and (and (and (and (and (and (and (and (and (and (and (and (and (and (and (and (and (and (and (and (and (and (and (and (and (and (and (and (and (and (and (and (and (and (and (and (and (and (and (and (and (and (and (and (and (and (and (and (and (and (and (and (and (and (and (and (and (and (and (and (and (and (and (and (and (and (and (and (and (and (and (and (and (and (and (and (and (and (and (and (and (and (and (and (and (and (and (and (and (and (and (and (and (and (and (and (and (and (or (or ?v_126 P32) ?v_3) (or (or ?v_103 ?v_0) ?v_1)) (or (or ?v_222 ?v_42) ?v_0)) (or (or ?v_32 ?v_47) P1)) (or (or P29 ?v_9) ?v_19)) (or (or ?v_108 ?v_38) P23)) (or (or P46 P8) ?v_1)) (or (or P23 ?v_2) P19)) (or (or P32 ?v_15) P44)) (or (or ?v_6 ?v_8) P3)) (or (or ?v_140 ?v_3) ?v_54)) (or (or ?v_113 ?v_147) ?v_13)) (or ?v_234 ?v_178)) (or (or ?v_57 P17) P13)) (or (or ?v_247 ?v_153) ?v_7)) (or (or ?v_128 ?v_41) ?v_43)) (or (or P47 ?v_100) ?v_28)) (or (or ?v_66 ?v_5) ?v_2)) (or (or P27 ?v_104) ?v_6)) (or (or ?v_12 ?v_14) ?v_64)) (or (or ?v_96 ?v_124) ?v_7)) (or (or ?v_95 ?v_29) ?v_20)) (or (or ?v_8 P11) P33)) (or (or ?v_9 ?v_11) ?v_149)) (or (or ?v_10 ?v_88) ?v_73)) (or (or ?v_37 ?v_13) ?v_0)) (or (or ?v_14 ?v_15) ?v_195)) (or (or ?v_16 ?v_215) P4)) (or (or P0 ?v_24) ?v_0)) (or (or P32 ?v_111) ?v_19)) (or (or ?v_135 ?v_36) ?v_161)) (or (or ?v_62 ?v_7) P44)) (or (or ?v_21 ?v_212) ?v_22)) (or (or ?v_61 ?v_23) ?v_131)) (or (or ?v_59 ?v_33) ?v_26)) (or (or ?v_17 ?v_31) ?v_159)) (or (or ?v_27 P34) ?v_186)) (or (or ?v_187 ?v_24) ?v_216)) (or (or ?v_51 ?v_127) ?v_80)) (or (or ?v_106 ?v_78) ?v_35)) (or (or ?v_27 P26) ?v_91)) (or (or ?v_28 ?v_29) ?v_210)) (or (or ?v_157 ?v_32) ?v_33)) (or (or P8 P11) ?v_71)) (or (or P28 P34) ?v_160)) (or (or ?v_34 ?v_218) ?v_166)) (or (or ?v_22 P34) ?v_7)) (or (or ?v_65 ?v_117) ?v_72)) (or (or P24 ?v_36) ?v_109)) (or (or ?v_84 P30) P8)) (or (or ?v_146 P41) ?v_74)) (or (or ?v_37 ?v_151) ?v_39)) (or (or ?v_39 ?v_55) P5)) (or (or ?v_170 ?v_41) ?v_46)) (or (or ?v_85 ?v_129) ?v_42)) (or (or ?v_197 ?v_43) ?v_240)) (or (or ?v_16 ?v_44) ?v_52)) (or (or ?v_169 P23) P28)) (or (or ?v_47 ?v_48) ?v_77)) (or (or ?v_75 ?v_141) ?v_217)) (or (or P12 ?v_58) ?v_97)) (or (or ?v_163 ?v_33) ?v_50)) (or (or ?v_51 ?v_133) P4)) (or (or ?v_52 ?v_8) ?v_168)) (or (or ?v_35 ?v_53) ?v_54)) (or (or ?v_55 P9) ?v_56)) (or (or ?v_105 ?v_2) ?v_68)) (or (or ?v_57 ?v_58) ?v_86)) (or (or ?v_107 ?v_211) ?v_144)) (or (or ?v_37 ?v_209) ?v_171)) (or (or ?v_59 ?v_60) ?v_220)) (or (or ?v_241 ?v_62) ?v_63)) (or (or ?v_6 ?v_175) ?v_64)) (or (or ?v_41 ?v_110) ?v_207)) (or (or ?v_76 ?v_130) ?v_56)) (or (or ?v_90 ?v_13) P1)) (or (or ?v_67 P11) ?v_68)) (or (or ?v_69 ?v_7) ?v_70)) (or (or ?v_66 ?v_71) ?v_72)) (or (or ?v_73 ?v_17) ?v_74)) (or (or P38 ?v_75) P26)) (or (or ?v_230 ?v_76) P32)) (or (or ?v_77 P3) ?v_142)) (or (or ?v_36 (not ?v_64)) ?v_78)) (or (or ?v_70 P39) P36)) (or (or P4 P30) ?v_102)) (or (or ?v_48 ?v_138) ?v_79)) (or (or ?v_64 P19) ?v_36)) (or (or ?v_80 ?v_81) ?v_112)) (or (or ?v_94 P46) ?v_123)) (or (or ?v_82 ?v_89) P13)) (or (or ?v_69 ?v_84) ?v_85)) (or (or ?v_86 ?v_33) ?v_176)) (or (or ?v_79 ?v_189) ?v_85)) (or (or ?v_54 P4) P15)) (or (or ?v_77 P23) ?v_89)) (or (or ?v_139 ?v_59) P24)) (or (or ?v_14 ?v_91) ?v_92)) (or (or ?v_64 ?v_254) ?v_190)) (or (or ?v_94 P45) ?v_26)) (or (or ?v_203 ?v_95) ?v_96)) (or (or P8 ?v_90) ?v_80)) (or (or ?v_97 ?v_98) ?v_99)) (or (or ?v_100 ?v_101) ?v_62)) (or (or ?v_102 P26) ?v_208)) (or (or ?v_103 ?v_152) ?v_22)) (or (or ?v_105 ?v_192) P46)) (or (or P15 ?v_106) ?v_107)) (or (or ?v_118 ?v_71) P33)) (or (or ?v_125 ?v_108) ?v_219)) (or (or ?v_36 ?v_115) ?v_109)) (or (or ?v_6 ?v_110) ?v_47)) (or (or ?v_92 ?v_155) P19)) (or ?v_253 ?v_111)) (or (or ?v_112 ?v_1) ?v_10)) (or (or P22 ?v_113) ?v_114)) (or (or ?v_67 ?v_228) P44)) (or (or ?v_20 ?v_115) P5)) (or (or P48 P12) ?v_116)) (or (or ?v_108 ?v_229) P27)) (or (or ?v_117 P48) ?v_118)) (or (or P6 ?v_119) ?v_75)) (or (or ?v_120 ?v_121) ?v_122)) (or (or ?v_19 ?v_33) ?v_174)) (or (or ?v_76 ?v_124) ?v_62)) (or (or ?v_16 ?v_105) ?v_60)) (or (or P21 ?v_78) ?v_191)) (or (or ?v_165 ?v_126) ?v_112)) (or (or ?v_127 ?v_128) ?v_17)) (or (or ?v_188 ?v_129) ?v_77)) (or (or P12 ?v_130) ?v_10)) (or (or ?v_162 ?v_131) ?v_132)) (or (or ?v_5 ?v_128) ?v_133)) (or (or ?v_79 ?v_33) P9)) (or (or ?v_9 ?v_127) ?v_57)) (or (or ?v_22 ?v_136) ?v_135)) (or (or ?v_97 ?v_10) P25)) (or (or ?v_86 ?v_136) P12)) (or (or ?v_137 P31) ?v_201)) (or (or P8 ?v_75) ?v_54)) (or (or ?v_138 ?v_139) ?v_196)) (or (or ?v_140 P28) ?v_110)) (or (or P0 ?v_79) ?v_184)) (or (or P13 ?v_97) ?v_256)) (or (or ?v_74 ?v_103) ?v_142)) (or (or ?v_85 ?v_143) ?v_54)) (or (or ?v_27 ?v_20) ?v_144)) (or (or ?v_26 ?v_177) ?v_214)) (or (or ?v_145 P42) ?v_227)) (or (or ?v_32 ?v_150) ?v_100)) (or (or ?v_146 ?v_147) P34)) (or (or ?v_148 ?v_149) ?v_150)) (or (or ?v_151 ?v_68) ?v_94)) (or (or ?v_46 P37) ?v_36)) (or (or ?v_23 ?v_34) P3)) (or (or ?v_15 ?v_144) P41)) (or (or ?v_152 ?v_149) ?v_151)) (or (or ?v_55 ?v_91) P23)) (or (or P17 ?v_5) ?v_202)) (or (or ?v_113 ?v_100) ?v_29)) (or (or ?v_7 ?v_131) ?v_28)) (or (or ?v_153 P4) ?v_154)) (or (or ?v_74 ?v_182) ?v_150)) (or (or ?v_128 ?v_155) ?v_138)) (or (or P0 ?v_156) P47)) (or (or ?v_52 ?v_157) ?v_135)) (or (or ?v_79 ?v_136) ?v_158)) (or (or ?v_22 P9) ?v_119)) (or (or ?v_159 ?v_179) ?v_74)) (or (or ?v_161 ?v_58) ?v_100)) (or (or ?v_80 ?v_154) ?v_114)) (or (or ?v_162 P3) ?v_98)) (or (or ?v_115 ?v_163) ?v_85)) (or (or P31 ?v_1) ?v_103)) (or (or P39 ?v_104) ?v_173)) (or (or ?v_113 ?v_137) ?v_7)) (or (or ?v_78 P20) ?v_32)) (or (or ?v_37 ?v_3) P32)) (or (or ?v_164 ?v_165) ?v_79)) (or (or ?v_8 ?v_147) ?v_166)) (or (or ?v_67 ?v_167) ?v_124)) (or (or ?v_70 ?v_168) ?v_110)) (or (or ?v_119 ?v_63) ?v_169)) (or (or ?v_170 ?v_171) ?v_119)) (or (or ?v_39 ?v_232) P24)) (or (or ?v_172 ?v_173) ?v_244)) (or (or ?v_22 ?v_112) ?v_169)) (or (or P32 P4) ?v_89)) (or (or ?v_156 ?v_155) ?v_113)) (or (or ?v_152 P42) ?v_67)) (or (or ?v_119 ?v_174) ?v_175)) (or (or ?v_181 ?v_171) ?v_145)) (or (or P7 ?v_177) ?v_127)) (or (or P20 ?v_183) ?v_157)) (or (or ?v_140 P15) ?v_22)) (or (or ?v_178 ?v_185) ?v_88)) (or (or ?v_179 ?v_193) ?v_67)) (or (or ?v_130 P49) ?v_180)) (or (or ?v_181 ?v_182) ?v_60)) (or (or ?v_89 P23) P1)) (or (or P9 ?v_20) ?v_204)) (or (or ?v_146 P13) ?v_7)) (or (or ?v_239 ?v_226) ?v_183)) (or (or ?v_61 ?v_15) ?v_238)) (or (or P32 ?v_184) ?v_133)) (or (or ?v_185 P9) ?v_186)) (or (or ?v_187 ?v_69) ?v_95)) (or (or P8 ?v_188) ?v_176)) (or (or ?v_15 ?v_173) ?v_159)) (or (or ?v_152 ?v_34) P22)) (or (or ?v_189 ?v_190) ?v_12)) (or (or P48 ?v_191) P36)) (or (or P40 ?v_185) ?v_174)) (or (or ?v_38 ?v_192) ?v_5)) (or (or ?v_32 ?v_135) P1)) (or (or ?v_15 ?v_140) ?v_80)) (or (or ?v_113 ?v_69) P19)) (or (or ?v_8 ?v_124) ?v_108)) (or (or ?v_193 ?v_129) ?v_132)) (or (or ?v_194 ?v_192) ?v_142)) (or (or ?v_79 ?v_106) ?v_194)) (or (or P15 ?v_16) ?v_195)) (or (or P1 ?v_42) ?v_221)) (or (or ?v_150 ?v_129) ?v_164)) (or (or ?v_28 ?v_86) ?v_103)) (or (or ?v_136 ?v_58) ?v_86)) (or (or ?v_189 P27) ?v_76)) (or (or ?v_165 ?v_169) ?v_136)) (or (or ?v_69 ?v_59) ?v_64)) (or (or ?v_137 ?v_112) ?v_249)) (or (or ?v_168 ?v_196) ?v_55)) (or (or ?v_68 ?v_98) ?v_162)) (or (or ?v_56 ?v_197) ?v_108)) (or (or ?v_198 ?v_22) ?v_89)) (or (or ?v_69 ?v_41) P12)) (or (or ?v_118 ?v_86) ?v_147)) (or (or P13 ?v_66) P12)) (or (or ?v_160 ?v_113) P5)) (or (or ?v_80 ?v_117) ?v_6)) (or (or ?v_69 ?v_148) ?v_12)) (or (or ?v_13 ?v_199) ?v_153)) (or (or ?v_200 ?v_170) ?v_175)) (or (or ?v_124 ?v_131) ?v_68)) (or (or ?v_201 ?v_22) P41)) (or (or ?v_224 P20) ?v_185)) (or (or ?v_175 P49) P48)) (or (or ?v_62 ?v_56) ?v_202)) (or (or ?v_203 ?v_61) P40)) (or (or ?v_111 P49) ?v_204)) (or (or ?v_64 ?v_205) ?v_206)) (or (or ?v_161 ?v_8) ?v_207)) (or (or ?v_208 P49) ?v_154)) (or (or P12 ?v_209) ?v_138)) (or (or ?v_210 P40) ?v_113)) (or (or ?v_111 P46) ?v_213)) (or (or ?v_192 ?v_152) ?v_136)) (or (or ?v_188 ?v_174) ?v_58)) (or (or P33 ?v_196) ?v_203)) (or (or ?v_77 ?v_91) ?v_38)) (or (or ?v_175 P10) ?v_211)) (or (or ?v_82 ?v_11) ?v_108)) (or (or P22 P33) ?v_69)) (or (or ?v_210 ?v_212) ?v_153)) (or (or P24 ?v_213) ?v_75)) (or (or ?v_138 ?v_178) ?v_202)) (or (or ?v_97 ?v_85) ?v_214)) (or (or ?v_242 ?v_44) ?v_184)) (or (or ?v_245 P28) ?v_213)) (or (or ?v_151 P20) ?v_172)) (or (or ?v_143 P43) P14)) (or (or ?v_147 P8) P37)) (or (or ?v_89 P9) P27)) (or (or P6 ?v_54) ?v_215)) (or (or ?v_233 P13) ?v_103)) (or (or ?v_1 ?v_0) ?v_12)) (or (or ?v_130 ?v_216) ?v_34)) (or (or ?v_69 ?v_237) ?v_70)) (or (or ?v_199 ?v_124) ?v_34)) (or (or ?v_7 P41) ?v_64)) (or (or ?v_132 P32) ?v_138)) (or (or P1 ?v_56) ?v_215)) (or (or ?v_217 ?v_103) ?v_15)) (or (or ?v_129 ?v_218) ?v_65)) (or (or ?v_170 ?v_209) ?v_183)) (or (or ?v_225 ?v_174) P13)) (or (or P16 ?v_57) ?v_198)) (or (or P40 P42) ?v_125)) (or (or ?v_219 P16) ?v_166)) (or (or ?v_86 ?v_75) ?v_163)) (or (or ?v_255 ?v_251) P20)) (or (or ?v_47 ?v_220) ?v_113)) (or (or ?v_10 ?v_203) ?v_221)) (or (or ?v_217 ?v_78) ?v_151)) (or (or ?v_9 ?v_205) ?v_82)) (or (or ?v_146 P43) ?v_80)) (or (or ?v_121 ?v_111) ?v_222)) (or (or ?v_223 ?v_192) ?v_169)) (or (or ?v_178 ?v_80) ?v_37)) (or (or ?v_92 P11) ?v_24)) (or (or ?v_35 ?v_147) P44)) (or (or ?v_7 P46) ?v_65)) (or (or ?v_138 P4) P27)) (or (or ?v_34 ?v_23) P3)) (or (or ?v_46 ?v_31) ?v_213)) (or (or P19 ?v_130) ?v_174)) (or (or ?v_172 ?v_5) P18)) (or (or ?v_235 ?v_159) P2)) (or (or ?v_162 ?v_132) ?v_27)) (or (or ?v_224 ?v_222) ?v_14)) (or (or ?v_108 ?v_64) ?v_84)) (or (or ?v_208 ?v_225) ?v_226)) (or (or ?v_170 ?v_126) ?v_193)) (or (or ?v_201 ?v_165) P29)) (or (or ?v_190 ?v_57) ?v_3)) (or (or ?v_206 ?v_148) ?v_131)) (or (or ?v_246 ?v_227) ?v_81)) (or (or ?v_219 P11) ?v_200)) (or (or ?v_228 ?v_174) ?v_33)) (or (or P15 ?v_90) ?v_229)) (or (or ?v_149 ?v_36) ?v_187)) (or (or ?v_113 ?v_183) ?v_230)) (or (or ?v_231 ?v_106) ?v_157)) (or (or ?v_58 ?v_101) ?v_36)) (or (or P11 ?v_20) ?v_32)) (or (or P42 ?v_56) ?v_27)) (or (or ?v_84 ?v_152) ?v_208)) (or (or ?v_10 ?v_81) ?v_173)) (or (or ?v_23 ?v_231) P11)) (or (or ?v_56 ?v_232) ?v_19)) (or (or ?v_35 ?v_72) ?v_227)) (or (or ?v_10 P24) ?v_136)) (or (or P44 ?v_74) ?v_128)) (or (or P19 ?v_233) ?v_146)) (or ?v_234 ?v_235)) (or (or P9 ?v_130) ?v_204)) (or (or ?v_16 ?v_75) ?v_112)) (or (or ?v_62 ?v_159) ?v_129)) (or (or ?v_112 ?v_26) ?v_235)) (or (or ?v_20 ?v_236) ?v_178)) (or (or P41 ?v_191) ?v_35)) (or (or P32 ?v_149) ?v_237)) (or (or ?v_160 ?v_150) ?v_189)) (or (or ?v_72 P33) ?v_144)) (or (or ?v_236 ?v_56) ?v_67)) (or (or P22 ?v_117) ?v_181)) (or (or ?v_1 ?v_64) P9)) (or (or P18 ?v_177) ?v_105)) (or (or P35 ?v_72) ?v_238)) (or (or ?v_67 P49) ?v_58)) (or (or ?v_239 ?v_42) P6)) (or (or ?v_29 ?v_35) ?v_205)) (or (or ?v_197 ?v_27) ?v_158)) (or (or ?v_119 ?v_106) ?v_85)) (or (or ?v_11 ?v_186) ?v_233)) (or (or ?v_136 P22) P44)) (or (or ?v_50 ?v_183) ?v_124)) (or (or ?v_208 ?v_127) ?v_48)) (or (or ?v_175 ?v_165) ?v_92)) (or (or P20 ?v_158) ?v_240)) (or (or ?v_238 ?v_151) ?v_174)) (or (or ?v_73 P42) P29)) (or (or ?v_56 ?v_63) ?v_124)) (or (or ?v_219 ?v_11) ?v_238)) (or (or ?v_13 ?v_36) ?v_178)) (or (or P41 P39) ?v_61)) (or (or P34 ?v_238) ?v_188)) (or (or ?v_241 P31) ?v_17)) (or (or ?v_125 ?v_86) ?v_104)) (or (or ?v_242 ?v_75) ?v_60)) (or (or P0 ?v_80) ?v_14)) (or (or ?v_67 ?v_13) ?v_135)) (or (or ?v_125 ?v_169) ?v_221)) (or (or ?v_59 ?v_166) P1)) (or (or ?v_48 ?v_181) ?v_160)) (or (or ?v_116 P28) ?v_163)) (or (or ?v_82 ?v_205) ?v_60)) (or (or ?v_96 P7) ?v_207)) (or (or ?v_5 ?v_91) ?v_34)) (or (or P34 ?v_138) ?v_98)) (or (or ?v_97 ?v_201) ?v_208)) (or (or ?v_236 P31) ?v_66)) (or (or ?v_21 ?v_243) ?v_166)) (or (or ?v_15 ?v_138) ?v_230)) (or (or ?v_57 ?v_52) ?v_82)) (or (or P23 ?v_121) P43)) (or (or ?v_54 ?v_165) P41)) (or (or ?v_244 ?v_51) ?v_11)) (or (or ?v_100 ?v_105) ?v_133)) (or (or ?v_44 ?v_77) ?v_58)) (or (or ?v_162 ?v_250) P7)) (or (or ?v_214 ?v_24) ?v_179)) (or (or ?v_217 ?v_245) ?v_86)) (or (or P38 ?v_52) ?v_50)) (or (or ?v_77 ?v_177) ?v_11)) (or (or ?v_230 ?v_85) ?v_114)) (or (or ?v_246 ?v_200) ?v_90)) (or (or ?v_164 P7) ?v_248)) (or (or ?v_63 ?v_100) ?v_85)) (or (or ?v_212 ?v_140) ?v_135)) (or (or ?v_33 P22) P36)) (or (or ?v_210 ?v_147) ?v_247)) (or (or ?v_95 ?v_17) ?v_118)) (or (or P18 ?v_116) ?v_3)) (or (or ?v_107 ?v_137) ?v_248)) (or (or ?v_249 ?v_196) ?v_41)) (or (or P43 ?v_201) ?v_179)) (or (or ?v_250 P49) ?v_23)) (or (or ?v_101 ?v_165) ?v_130)) (or (or ?v_6 ?v_56) ?v_34)) (or (or ?v_66 ?v_183) ?v_245)) (or (or ?v_227 ?v_91) ?v_191)) (or (or ?v_237 ?v_108) ?v_175)) (or (or P25 ?v_22) ?v_91)) (or (or ?v_250 ?v_117) ?v_238)) (or (or ?v_222 ?v_104) P48)) (or (or ?v_152 ?v_183) ?v_237)) (or (or ?v_247 ?v_17) ?v_140)) (or (or ?v_178 ?v_175) ?v_102)) (or (or ?v_99 ?v_237) ?v_43)) (or (or ?v_168 P45) ?v_202)) (or (or ?v_205 (not ?v_252)) ?v_43)) (or (or ?v_13 ?v_194) ?v_137)) (or (or ?v_249 ?v_245) ?v_167)) (or (or P25 ?v_235) ?v_243)) (or (or ?v_91 ?v_116) ?v_131)) (or (or ?v_222 ?v_82) P1)) (or (or ?v_28 ?v_64) P39)) (or (or ?v_140 ?v_43) ?v_14)) (or (or ?v_246 ?v_206) ?v_251)) (or (or ?v_171 ?v_52) P37)) (or (or ?v_138 P18) ?v_245)) (or (or ?v_248 ?v_22) P8)) (or (or ?v_99 ?v_13) P2)) (or (or ?v_110 ?v_157) ?v_102)) (or (or ?v_109 ?v_177) ?v_164)) (or (or ?v_227 ?v_135) ?v_99)) (or (or ?v_112 ?v_132) ?v_241)) (or (or P26 ?v_55) ?v_199)) (or (or ?v_194 ?v_0) ?v_198)) (or (or ?v_73 ?v_53) ?v_82)) (or (or ?v_79 ?v_59) P12)) (or (or ?v_126 P2) ?v_228)) (or (or ?v_77 ?v_28) P11)) (or (or ?v_84 P41) ?v_184)) (or (or P32 ?v_231) ?v_228)) (or (or ?v_69 P35) ?v_147)) (or (or P31 ?v_248) ?v_82)) (or (or ?v_210 ?v_19) ?v_246)) (or (or ?v_215 ?v_226) ?v_194)) (or (or ?v_32 ?v_75) ?v_221)) (or (or ?v_160 ?v_109) P25)) (or (or ?v_221 ?v_158) ?v_251)) (or (or ?v_156 P14) ?v_138)) (or (or ?v_208 P40) ?v_43)) (or (or ?v_198 ?v_252) ?v_72)) (or (or ?v_22 P42) ?v_12)) (or (or ?v_119 ?v_62) P38)) (or (or ?v_133 ?v_148) ?v_57)) (or (or P15 P4) ?v_78)) (or (or ?v_121 ?v_176) ?v_186)) (or (or P44 ?v_17) ?v_14)) (or (or ?v_211 P30) ?v_197)) (or (or ?v_91 ?v_145) ?v_157)) (or (or ?v_163 P44) P32)) (or (or ?v_243 ?v_227) P42)) (or (or P2 ?v_169) ?v_138)) (or (or ?v_73 P11) ?v_20)) (or ?v_253 ?v_156)) (or (or ?v_48 ?v_50) ?v_133)) (or (or ?v_198 ?v_179) ?v_241)) (or (or P34 ?v_9) ?v_88)) (or (or ?v_199 P43) P40)) (or (or ?v_108 ?v_231) P43)) (or (or ?v_208 ?v_110) ?v_248)) (or (or ?v_185 ?v_200) ?v_55)) (or (or ?v_167 P31) ?v_116)) (or (or ?v_152 ?v_238) ?v_69)) (or (or ?v_183 ?v_92) ?v_60)) (or (or ?v_190 ?v_88) ?v_119)) (or (or P33 ?v_228) ?v_163)) (or (or ?v_39 ?v_196) ?v_160)) (or (or P48 ?v_90) ?v_21)) (or (or ?v_15 ?v_105) P20)) (or (or P24 ?v_79) ?v_210)) (or (or ?v_188 ?v_6) P6)) (or (or P23 ?v_210) ?v_22)) (or (or ?v_84 P27) ?v_36)) (or (or ?v_244 ?v_201) ?v_143)) (or (or ?v_126 P48) ?v_56)) (or (or ?v_231 ?v_54) ?v_198)) (or (or ?v_79 ?v_129) ?v_182)) (or (or P48 ?v_72) ?v_86)) (or (or P38 ?v_155) ?v_209)) (or (or ?v_164 ?v_212) ?v_116)) (or (or ?v_52 ?v_216) P18)) (or (or ?v_249 P15) ?v_90)) (or (or ?v_6 ?v_235) ?v_215)) (or (or P14 ?v_238) ?v_224)) (or (or ?v_254 ?v_105) P19)) (or (or ?v_56 ?v_239) P44)) (or (or ?v_161 ?v_99) ?v_150)) (or (or ?v_159 P36) ?v_65)) (or (or ?v_39 ?v_241) ?v_158)) (or (or ?v_32 ?v_175) ?v_7)) (or (or ?v_82 P10) ?v_80)) (or (or ?v_139 P14) P47)) (or (or (not ?v_105) ?v_243) ?v_217)) (or (or ?v_251 ?v_138) ?v_77)) (or (or ?v_255 ?v_230) ?v_26)) (or (or ?v_129 ?v_247) ?v_187)) (or (or P12 ?v_200) P5)) (or (or ?v_113 P46) ?v_60)) (or (or ?v_47 ?v_66) ?v_106)) (or (or ?v_213 ?v_105) ?v_208)) (or (or ?v_165 ?v_22) P1)) (or (or P12 ?v_208) ?v_14)) (or (or ?v_9 ?v_126) ?v_110)) (or (or ?v_5 ?v_227) ?v_229)) (or (or ?v_164 ?v_184) ?v_240)) (or (or P4 ?v_2) ?v_161)) (or (or ?v_194 ?v_14) ?v_128)) (or (or P47 P40) P44)) (or (or ?v_99 ?v_215) ?v_222)) (or (or ?v_244 ?v_199) P48)) (or (or ?v_43 ?v_248) ?v_143)) (or (or ?v_101 ?v_224) ?v_141)) (or (or ?v_140 ?v_144) ?v_65)) (or (or ?v_22 ?v_171) ?v_38)) (or (or ?v_77 P6) ?v_130)) (or (or ?v_26 ?v_248) ?v_103)) (or (or ?v_225 ?v_131) ?v_3)) (or (or P14 ?v_256) ?v_192)) (or (or ?v_98 ?v_144) ?v_115)) (or (or P11 P49) ?v_209)) (or (or ?v_185 P41) ?v_122)) (or (or ?v_32 P6) ?v_180)) (or (or P29 ?v_240) ?v_252)) (or (or ?v_207 ?v_177) P11)) (or (or ?v_204 ?v_240) ?v_122)) (or (or ?v_72 P5) ?v_31)) (or (or ?v_218 ?v_118) ?v_106)) (or (or ?v_257 ?v_65) ?v_247)) (or (or ?v_216 ?v_206) ?v_179)) (or (or ?v_239 ?v_79) ?v_129)) (or (or ?v_172 ?v_223) ?v_151)) (or (or ?v_106 ?v_152) ?v_202)) (or (or ?v_246 ?v_62) P24)) (or (or ?v_238 ?v_67) ?v_257)) (or (or ?v_176 ?v_140) ?v_183)) (or (or P42 ?v_39) ?v_111)) (or (or ?v_229 ?v_210) ?v_37)) (or (or ?v_144 P37) ?v_193)) (or (or ?v_132 ?v_59) ?v_142)) (or (or ?v_29 P43) ?v_132)) (or (or ?v_245 ?v_107) ?v_26)) (or (or ?v_191 ?v_115) P33)) (or (or P33 ?v_164) ?v_235)) (or (or P41 ?v_210) ?v_188)) (or (or P3 ?v_67) ?v_99)) (or (or ?v_159 ?v_200) ?v_143)) (or (or P39 ?v_209) ?v_107)) (or (or ?v_2 ?v_54) P31)) (or (or ?v_94 ?v_119) ?v_96)) (or (or ?v_0 ?v_204) ?v_144)) (or (or P13 ?v_112) ?v_202)) (or (or ?v_203 ?v_110) ?v_213)) (or (or P44 ?v_112) ?v_142)) (or (or ?v_216 ?v_97) P15)) (or (or ?v_13 ?v_102) ?v_177)) (or (or ?v_116 ?v_220) ?v_163)) (or (or ?v_16 ?v_2) ?v_168)) (or (or ?v_112 ?v_31) ?v_69)) (or (or ?v_228 ?v_128) ?v_131)) (or (or ?v_144 ?v_171) ?v_257)) (or (or ?v_108 P43) ?v_110)) (or (or ?v_47 ?v_198) P9)) (or (or ?v_163 ?v_187) ?v_59)) (or (or P36 ?v_46) ?v_165)) (or (or ?v_91 ?v_118) ?v_120)) (or (or ?v_142 ?v_91) P27)) (or (or ?v_110 ?v_129) ?v_217)) (or (or ?v_146 ?v_46) ?v_58)) (or (or ?v_103 ?v_85) ?v_209)) (or (or P16 ?v_139) ?v_196)) (or (or ?v_168 ?v_95) ?v_142)) (or (or ?v_219 ?v_29) ?v_13)) (or (or ?v_197 ?v_68) ?v_181)) (or (or ?v_191 ?v_34) ?v_54)) (or (or P46 ?v_209) ?v_63)) (or (or ?v_170 ?v_144) ?v_225)) (or (or ?v_221 ?v_215) ?v_72)) (or (or ?v_244 ?v_198) ?v_96)) (or (or ?v_185 ?v_29) ?v_100)) (or (or ?v_227 P30) ?v_241)) (or (or ?v_221 ?v_97) ?v_5)) (or (or P22 ?v_62) ?v_232)) (or (or ?v_98 ?v_34) ?v_82)) (or (or ?v_229 ?v_181) ?v_250)) (or (or ?v_227 P10) ?v_38)) (or (or ?v_181 ?v_203) ?v_251)))))))))))))))))))))))))))))))))))))))))))
(check-sat)
(exit)
